2014
4251
6051
7168
4551
2269
4366
7926
2480
23112
3447
3711
3760
5965
7816
11543
9884
15607
18683
26561
7295
3271
6036
6327
8947
4448
10921
11117
9832
10816
4466
9881
39463
4701
5456
16781
14668
47249
41007
61633
17246
7887
5114
36022
17676
48701
66230
58964
79614
5937
9060
34652
30038
43853
69610
64474
49791
